c Optimization.jl
c  Problem  1 input parameters
c  ---------------------------
c   Number of nodes:            89
c   Source nodes:               2
c   Sink nodes:                 6
c   Number of arcs:             1000
c   Minimum arc cost:           1.0
c   Maximum arc cost:           88.0
c   Total supply:               747.0
c   Minimum arc capacity:       46.0
c   Maximum arc capacity:       510.0
c
c  *** Minimum cost flow ***
c
p min 89 1000
n 1 510.0
n 2 237.0
n 84 -91.0
n 85 -133.0
n 86 -88.0
n 87 -88.0
n 88 -168.0
n 89 -179.0
a 1 55 0.0 510.0 80.0
a 1 40 0.0 92.0 35.0
a 1 65 0.0 101.0 64.0
a 1 37 0.0 118.0 80.0
a 1 32 0.0 85.0 42.0
a 1 12 0.0 147.0 2.0
a 1 8 0.0 132.0 42.0
a 1 10 0.0 88.0 76.0
a 1 77 0.0 107.0 2.0
a 1 48 0.0 106.0 56.0
a 1 19 0.0 135.0 2.0
a 6 89 0.0 510.0 19.0
a 6 22 0.0 510.0 54.0
a 6 88 0.0 104.0 46.0
a 10 23 0.0 510.0 44.0
a 10 87 0.0 102.0 23.0
a 10 60 0.0 128.0 69.0
a 10 3 0.0 120.0 82.0
a 10 70 0.0 127.0 58.0
a 10 61 0.0 101.0 75.0
a 10 57 0.0 141.0 63.0
a 10 65 0.0 120.0 44.0
a 10 5 0.0 80.0 18.0
a 10 11 0.0 54.0 55.0
a 10 41 0.0 124.0 60.0
a 10 43 0.0 60.0 62.0
a 10 76 0.0 65.0 35.0
a 10 37 0.0 90.0 25.0
a 10 42 0.0 49.0 45.0
a 11 37 0.0 510.0 78.0
a 11 10 0.0 85.0 56.0
a 11 85 0.0 46.0 34.0
a 12 58 0.0 510.0 71.0
a 12 60 0.0 126.0 18.0
a 12 33 0.0 59.0 88.0
a 12 53 0.0 137.0 49.0
a 12 42 0.0 48.0 40.0
a 12 30 0.0 116.0 45.0
a 12 18 0.0 91.0 58.0
a 12 55 0.0 75.0 64.0
a 12 74 0.0 60.0 24.0
a 12 59 0.0 118.0 60.0
a 12 37 0.0 125.0 58.0
a 13 45 0.0 510.0 75.0
a 13 74 0.0 54.0 87.0
a 13 4 0.0 63.0 48.0
a 13 34 0.0 107.0 18.0
a 13 63 0.0 146.0 9.0
a 13 14 0.0 137.0 6.0
a 13 44 0.0 95.0 65.0
a 13 21 0.0 54.0 79.0
a 13 50 0.0 89.0 43.0
a 13 84 0.0 58.0 31.0
a 13 88 0.0 89.0 53.0
a 13 26 0.0 85.0 37.0
a 13 37 0.0 47.0 82.0
a 15 67 0.0 510.0 20.0
a 15 37 0.0 87.0 16.0
a 15 27 0.0 119.0 58.0
a 15 73 0.0 104.0 53.0
a 15 10 0.0 87.0 68.0
a 15 89 0.0 127.0 35.0
a 15 39 0.0 148.0 7.0
a 15 33 0.0 101.0 32.0
a 15 83 0.0 102.0 88.0
a 15 60 0.0 92.0 55.0
a 15 8 0.0 55.0 4.0
a 15 68 0.0 136.0 21.0
a 15 42 0.0 101.0 46.0
a 15 36 0.0 70.0 82.0
a 15 24 0.0 123.0 3.0
a 15 35 0.0 80.0 82.0
a 15 87 0.0 57.0 42.0
a 15 65 0.0 59.0 74.0
a 15 86 0.0 73.0 74.0
a 15 62 0.0 73.0 5.0
a 16 80 0.0 510.0 76.0
a 16 62 0.0 78.0 33.0
a 16 85 0.0 83.0 77.0
a 16 36 0.0 105.0 1.0
a 16 78 0.0 116.0 40.0
a 16 37 0.0 49.0 21.0
a 16 21 0.0 68.0 70.0
a 16 56 0.0 65.0 44.0
a 17 19 0.0 510.0 57.0
a 17 80 0.0 61.0 12.0
a 17 27 0.0 136.0 50.0
a 19 15 0.0 510.0 33.0
a 19 36 0.0 143.0 10.0
a 19 68 0.0 134.0 85.0
a 19 63 0.0 91.0 43.0
a 19 42 0.0 116.0 71.0
a 19 6 0.0 114.0 59.0
a 19 44 0.0 107.0 9.0
a 19 12 0.0 56.0 16.0
a 19 3 0.0 113.0 43.0
a 19 79 0.0 49.0 25.0
a 19 4 0.0 73.0 50.0
a 22 47 0.0 510.0 84.0
a 22 53 0.0 120.0 13.0
a 22 64 0.0 72.0 57.0
a 22 37 0.0 136.0 83.0
a 22 43 0.0 96.0 68.0
a 22 49 0.0 107.0 65.0
a 22 26 0.0 101.0 61.0
a 22 17 0.0 63.0 21.0
a 22 65 0.0 89.0 29.0
a 22 36 0.0 68.0 15.0
a 22 48 0.0 145.0 61.0
a 22 74 0.0 103.0 4.0
a 22 51 0.0 54.0 73.0
a 22 29 0.0 65.0 47.0
a 22 42 0.0 77.0 52.0
a 22 55 0.0 97.0 80.0
a 22 66 0.0 147.0 39.0
a 22 56 0.0 119.0 1.0
a 22 73 0.0 65.0 53.0
a 22 81 0.0 111.0 78.0
a 23 13 0.0 510.0 1.0
a 23 39 0.0 55.0 59.0
a 24 75 0.0 510.0 49.0
a 24 29 0.0 114.0 73.0
a 24 5 0.0 128.0 73.0
a 24 58 0.0 110.0 5.0
a 24 20 0.0 74.0 62.0
a 24 70 0.0 64.0 22.0
a 24 72 0.0 49.0 33.0
a 24 11 0.0 47.0 85.0
a 24 63 0.0 134.0 13.0
a 24 30 0.0 77.0 12.0
a 24 68 0.0 131.0 75.0
a 24 46 0.0 143.0 16.0
a 24 31 0.0 88.0 81.0
a 24 16 0.0 82.0 57.0
a 24 28 0.0 62.0 40.0
a 24 4 0.0 124.0 49.0
a 24 50 0.0 53.0 70.0
a 24 77 0.0 116.0 33.0
a 24 88 0.0 55.0 11.0
a 24 48 0.0 79.0 87.0
a 24 25 0.0 149.0 81.0
a 24 13 0.0 49.0 43.0
a 25 77 0.0 510.0 51.0
a 25 48 0.0 105.0 9.0
a 27 16 0.0 510.0 74.0
a 27 33 0.0 94.0 20.0
a 27 17 0.0 63.0 47.0
a 27 31 0.0 64.0 82.0
a 27 41 0.0 131.0 17.0
a 27 49 0.0 90.0 73.0
a 27 24 0.0 84.0 30.0
a 27 79 0.0 140.0 53.0
a 27 75 0.0 53.0 20.0
a 27 76 0.0 95.0 6.0
a 27 22 0.0 113.0 49.0
a 27 18 0.0 114.0 79.0
a 27 69 0.0 95.0 10.0
a 27 62 0.0 146.0 14.0
a 27 20 0.0 132.0 61.0
a 27 46 0.0 73.0 15.0
a 27 12 0.0 137.0 69.0
a 27 23 0.0 124.0 85.0
a 27 48 0.0 85.0 10.0
a 27 68 0.0 89.0 9.0
a 27 30 0.0 87.0 17.0
a 27 10 0.0 107.0 87.0
a 32 17 0.0 510.0 34.0
a 32 30 0.0 91.0 81.0
a 32 49 0.0 70.0 10.0
a 32 43 0.0 95.0 27.0
a 32 12 0.0 52.0 14.0
a 32 34 0.0 133.0 50.0
a 32 52 0.0 87.0 19.0
a 32 68 0.0 115.0 51.0
a 32 13 0.0 90.0 16.0
a 32 23 0.0 113.0 82.0
a 32 6 0.0 129.0 45.0
a 32 11 0.0 119.0 19.0
a 32 77 0.0 132.0 43.0
a 32 15 0.0 61.0 13.0
a 32 55 0.0 125.0 68.0
a 32 19 0.0 73.0 23.0
a 32 50 0.0 105.0 57.0
a 37 25 0.0 510.0 83.0
a 37 47 0.0 133.0 51.0
a 37 53 0.0 129.0 14.0
a 38 53 0.0 510.0 53.0
a 38 29 0.0 82.0 54.0
a 38 76 0.0 109.0 54.0
a 38 49 0.0 97.0 32.0
a 38 73 0.0 106.0 61.0
a 38 78 0.0 118.0 85.0
a 38 11 0.0 88.0 39.0
a 38 8 0.0 54.0 20.0
a 38 7 0.0 124.0 40.0
a 38 9 0.0 108.0 41.0
a 38 59 0.0 102.0 50.0
a 38 26 0.0 149.0 46.0
a 38 84 0.0 59.0 82.0
a 38 79 0.0 105.0 35.0
a 38 45 0.0 109.0 31.0
a 38 82 0.0 147.0 37.0
a 38 46 0.0 84.0 6.0
a 38 21 0.0 139.0 61.0
a 38 34 0.0 76.0 1.0
a 38 75 0.0 78.0 83.0
a 39 76 0.0 510.0 33.0
a 39 66 0.0 69.0 22.0
a 39 54 0.0 61.0 43.0
a 39 7 0.0 111.0 76.0
a 39 68 0.0 148.0 27.0
a 39 41 0.0 109.0 49.0
a 39 49 0.0 70.0 58.0
a 39 62 0.0 119.0 44.0
a 39 57 0.0 72.0 20.0
a 39 82 0.0 93.0 13.0
a 39 51 0.0 111.0 56.0
a 39 60 0.0 134.0 13.0
a 39 80 0.0 63.0 58.0
a 39 72 0.0 114.0 59.0
a 39 17 0.0 97.0 18.0
a 39 4 0.0 72.0 5.0
a 39 85 0.0 136.0 24.0
a 39 89 0.0 81.0 10.0
a 39 75 0.0 87.0 42.0
a 39 59 0.0 64.0 36.0
a 39 24 0.0 46.0 47.0
a 39 23 0.0 103.0 4.0
a 40 70 0.0 510.0 20.0
a 40 84 0.0 510.0 1.0
a 40 26 0.0 92.0 17.0
a 40 53 0.0 141.0 80.0
a 40 62 0.0 77.0 37.0
a 40 24 0.0 63.0 10.0
a 40 34 0.0 138.0 41.0
a 40 54 0.0 113.0 14.0
a 40 18 0.0 123.0 13.0
a 40 63 0.0 146.0 49.0
a 40 20 0.0 126.0 62.0
a 40 44 0.0 135.0 87.0
a 40 35 0.0 70.0 65.0
a 40 6 0.0 138.0 2.0
a 40 52 0.0 106.0 65.0
a 40 69 0.0 147.0 45.0
a 40 21 0.0 149.0 64.0
a 40 37 0.0 88.0 54.0
a 40 48 0.0 91.0 57.0
a 40 74 0.0 55.0 83.0
a 40 79 0.0 72.0 17.0
a 40 12 0.0 117.0 52.0
a 40 51 0.0 60.0 72.0
a 40 82 0.0 80.0 38.0
a 41 12 0.0 510.0 44.0
a 41 15 0.0 139.0 87.0
a 41 21 0.0 105.0 57.0
a 41 7 0.0 145.0 79.0
a 41 65 0.0 104.0 12.0
a 41 88 0.0 115.0 5.0
a 41 14 0.0 50.0 8.0
a 41 78 0.0 72.0 11.0
a 41 37 0.0 119.0 22.0
a 41 77 0.0 107.0 71.0
a 41 35 0.0 117.0 23.0
a 41 86 0.0 127.0 86.0
a 41 74 0.0 56.0 1.0
a 41 9 0.0 55.0 87.0
a 41 40 0.0 121.0 15.0
a 41 49 0.0 131.0 48.0
a 41 43 0.0 85.0 35.0
a 42 63 0.0 510.0 36.0
a 42 83 0.0 141.0 73.0
a 42 55 0.0 61.0 72.0
a 42 26 0.0 85.0 21.0
a 42 9 0.0 75.0 67.0
a 42 59 0.0 84.0 15.0
a 42 7 0.0 101.0 67.0
a 42 43 0.0 67.0 43.0
a 42 8 0.0 124.0 14.0
a 42 21 0.0 105.0 57.0
a 42 40 0.0 46.0 40.0
a 42 46 0.0 77.0 16.0
a 42 10 0.0 131.0 29.0
a 42 35 0.0 139.0 85.0
a 45 39 0.0 510.0 11.0
a 45 54 0.0 144.0 18.0
a 45 85 0.0 79.0 84.0
a 45 12 0.0 67.0 49.0
a 46 65 0.0 510.0 17.0
a 46 25 0.0 69.0 47.0
a 46 3 0.0 112.0 25.0
a 46 50 0.0 102.0 80.0
a 46 89 0.0 140.0 6.0
a 46 67 0.0 102.0 38.0
a 46 49 0.0 122.0 85.0
a 46 40 0.0 116.0 19.0
a 46 86 0.0 93.0 9.0
a 46 88 0.0 118.0 69.0
a 46 75 0.0 104.0 39.0
a 46 28 0.0 90.0 7.0
a 46 27 0.0 61.0 72.0
a 46 8 0.0 96.0 11.0
a 47 57 0.0 510.0 80.0
a 47 9 0.0 81.0 56.0
a 47 83 0.0 57.0 72.0
a 47 78 0.0 87.0 88.0
a 47 49 0.0 76.0 35.0
a 47 37 0.0 48.0 80.0
a 47 70 0.0 74.0 6.0
a 52 46 0.0 510.0 3.0
a 52 45 0.0 98.0 42.0
a 52 62 0.0 131.0 45.0
a 52 64 0.0 68.0 72.0
a 52 75 0.0 125.0 24.0
a 52 88 0.0 130.0 58.0
a 52 18 0.0 64.0 78.0
a 52 55 0.0 63.0 64.0
a 52 7 0.0 130.0 86.0
a 52 31 0.0 75.0 8.0
a 52 23 0.0 106.0 59.0
a 53 11 0.0 510.0 27.0
a 53 86 0.0 69.0 44.0
a 54 24 0.0 510.0 67.0
a 54 84 0.0 108.0 10.0
a 54 78 0.0 95.0 12.0
a 54 43 0.0 53.0 55.0
a 54 4 0.0 127.0 34.0
a 54 53 0.0 121.0 52.0
a 54 46 0.0 149.0 87.0
a 54 8 0.0 49.0 63.0
a 54 44 0.0 85.0 52.0
a 54 50 0.0 124.0 18.0
a 54 49 0.0 133.0 72.0
a 55 10 0.0 510.0 20.0
a 55 30 0.0 113.0 29.0
a 55 27 0.0 96.0 32.0
a 55 33 0.0 149.0 64.0
a 55 21 0.0 55.0 2.0
a 55 28 0.0 68.0 53.0
a 55 62 0.0 118.0 7.0
a 55 89 0.0 75.0 64.0
a 55 6 0.0 147.0 80.0
a 55 64 0.0 102.0 27.0
a 55 68 0.0 65.0 81.0
a 55 74 0.0 126.0 74.0
a 57 40 0.0 510.0 58.0
a 57 33 0.0 139.0 41.0
a 57 20 0.0 135.0 68.0
a 58 87 0.0 510.0 4.0
a 58 83 0.0 510.0 75.0
a 58 69 0.0 97.0 51.0
a 58 60 0.0 124.0 70.0
a 58 65 0.0 99.0 67.0
a 58 18 0.0 149.0 27.0
a 58 64 0.0 54.0 48.0
a 58 81 0.0 115.0 43.0
a 58 13 0.0 91.0 60.0
a 58 5 0.0 122.0 78.0
a 58 74 0.0 121.0 49.0
a 58 11 0.0 104.0 19.0
a 63 52 0.0 510.0 9.0
a 63 34 0.0 101.0 48.0
a 63 18 0.0 64.0 46.0
a 63 35 0.0 139.0 22.0
a 63 78 0.0 50.0 42.0
a 63 23 0.0 55.0 46.0
a 63 12 0.0 51.0 46.0
a 63 72 0.0 128.0 8.0
a 63 44 0.0 125.0 21.0
a 63 74 0.0 93.0 36.0
a 63 21 0.0 118.0 73.0
a 63 65 0.0 53.0 6.0
a 63 53 0.0 129.0 87.0
a 63 57 0.0 130.0 78.0
a 63 40 0.0 123.0 50.0
a 63 31 0.0 67.0 69.0
a 65 88 0.0 510.0 41.0
a 65 69 0.0 510.0 78.0
a 65 28 0.0 108.0 77.0
a 65 21 0.0 127.0 85.0
a 65 87 0.0 116.0 69.0
a 65 73 0.0 55.0 86.0
a 65 76 0.0 114.0 14.0
a 65 32 0.0 102.0 9.0
a 65 86 0.0 145.0 4.0
a 65 22 0.0 57.0 20.0
a 65 48 0.0 83.0 77.0
a 65 9 0.0 76.0 54.0
a 65 20 0.0 61.0 34.0
a 65 34 0.0 110.0 38.0
a 65 83 0.0 80.0 76.0
a 65 14 0.0 102.0 8.0
a 65 70 0.0 93.0 72.0
a 65 79 0.0 94.0 19.0
a 65 17 0.0 85.0 73.0
a 65 4 0.0 130.0 36.0
a 66 32 0.0 510.0 3.0
a 66 70 0.0 78.0 2.0
a 66 35 0.0 124.0 38.0
a 66 9 0.0 102.0 32.0
a 66 20 0.0 54.0 32.0
a 66 87 0.0 127.0 79.0
a 66 49 0.0 62.0 48.0
a 66 78 0.0 103.0 62.0
a 66 30 0.0 130.0 50.0
a 66 64 0.0 96.0 80.0
a 66 47 0.0 128.0 77.0
a 66 43 0.0 110.0 39.0
a 66 73 0.0 95.0 13.0
a 66 44 0.0 100.0 7.0
a 66 88 0.0 80.0 14.0
a 66 28 0.0 111.0 45.0
a 66 27 0.0 106.0 33.0
a 67 38 0.0 510.0 31.0
a 67 86 0.0 510.0 38.0
a 67 82 0.0 146.0 17.0
a 67 72 0.0 119.0 73.0
a 67 3 0.0 58.0 85.0
a 67 35 0.0 94.0 51.0
a 67 42 0.0 124.0 35.0
a 67 26 0.0 81.0 6.0
a 67 44 0.0 71.0 80.0
a 67 29 0.0 134.0 16.0
a 67 10 0.0 138.0 62.0
a 67 71 0.0 134.0 80.0
a 67 46 0.0 143.0 41.0
a 67 70 0.0 119.0 67.0
a 67 59 0.0 125.0 7.0
a 67 23 0.0 59.0 7.0
a 67 54 0.0 73.0 68.0
a 67 9 0.0 130.0 34.0
a 67 58 0.0 121.0 16.0
a 67 18 0.0 67.0 79.0
a 67 66 0.0 95.0 26.0
a 67 69 0.0 114.0 14.0
a 69 6 0.0 510.0 84.0
a 69 12 0.0 52.0 12.0
a 69 24 0.0 121.0 66.0
a 69 58 0.0 51.0 37.0
a 70 73 0.0 510.0 69.0
a 70 66 0.0 142.0 83.0
a 70 55 0.0 89.0 20.0
a 70 46 0.0 105.0 41.0
a 70 71 0.0 56.0 51.0
a 70 5 0.0 122.0 32.0
a 70 9 0.0 112.0 33.0
a 70 14 0.0 65.0 10.0
a 70 4 0.0 93.0 67.0
a 70 15 0.0 104.0 22.0
a 70 51 0.0 137.0 64.0
a 70 62 0.0 61.0 47.0
a 70 34 0.0 64.0 80.0
a 70 58 0.0 70.0 87.0
a 70 35 0.0 103.0 8.0
a 70 77 0.0 88.0 65.0
a 70 80 0.0 70.0 61.0
a 70 87 0.0 74.0 33.0
a 70 45 0.0 65.0 29.0
a 70 81 0.0 124.0 52.0
a 73 27 0.0 510.0 19.0
a 73 9 0.0 97.0 77.0
a 73 72 0.0 132.0 13.0
a 73 66 0.0 56.0 64.0
a 75 66 0.0 510.0 81.0
a 75 13 0.0 75.0 79.0
a 75 62 0.0 85.0 5.0
a 75 31 0.0 115.0 4.0
a 75 39 0.0 119.0 46.0
a 75 54 0.0 67.0 55.0
a 75 41 0.0 117.0 51.0
a 75 6 0.0 136.0 10.0
a 75 18 0.0 79.0 52.0
a 76 41 0.0 510.0 60.0
a 76 4 0.0 121.0 15.0
a 76 39 0.0 137.0 22.0
a 76 23 0.0 84.0 64.0
a 76 20 0.0 126.0 86.0
a 76 19 0.0 136.0 73.0
a 76 46 0.0 97.0 59.0
a 77 42 0.0 510.0 21.0
a 77 20 0.0 105.0 47.0
a 77 37 0.0 113.0 57.0
a 77 68 0.0 136.0 44.0
a 77 43 0.0 78.0 34.0
a 77 57 0.0 133.0 32.0
a 77 11 0.0 114.0 9.0
a 77 40 0.0 85.0 30.0
a 77 65 0.0 96.0 80.0
a 77 22 0.0 116.0 9.0
a 77 66 0.0 62.0 6.0
a 77 89 0.0 46.0 6.0
a 77 82 0.0 48.0 80.0
a 77 87 0.0 96.0 54.0
a 77 35 0.0 98.0 13.0
a 77 25 0.0 126.0 39.0
a 77 41 0.0 102.0 75.0
a 77 72 0.0 139.0 21.0
a 80 85 0.0 510.0 35.0
a 80 44 0.0 87.0 31.0
a 80 18 0.0 78.0 73.0
a 83 54 0.0 510.0 13.0
a 83 58 0.0 92.0 79.0
a 83 77 0.0 149.0 71.0
a 83 17 0.0 108.0 22.0
a 83 33 0.0 82.0 44.0
a 2 34 0.0 237.0 34.0
a 2 16 0.0 63.0 24.0
a 2 52 0.0 143.0 83.0
a 2 80 0.0 64.0 18.0
a 2 69 0.0 115.0 75.0
a 2 46 0.0 114.0 88.0
a 2 21 0.0 117.0 31.0
a 2 9 0.0 120.0 85.0
a 2 39 0.0 102.0 20.0
a 2 84 0.0 68.0 75.0
a 2 15 0.0 117.0 76.0
a 2 19 0.0 143.0 48.0
a 2 14 0.0 83.0 75.0
a 2 47 0.0 109.0 71.0
a 2 4 0.0 61.0 27.0
a 2 6 0.0 62.0 68.0
a 3 33 0.0 237.0 9.0
a 3 89 0.0 140.0 72.0
a 3 62 0.0 141.0 21.0
a 3 67 0.0 98.0 10.0
a 3 15 0.0 104.0 83.0
a 3 38 0.0 145.0 29.0
a 3 55 0.0 71.0 4.0
a 3 26 0.0 77.0 87.0
a 3 35 0.0 96.0 84.0
a 3 77 0.0 99.0 25.0
a 3 54 0.0 104.0 44.0
a 3 42 0.0 109.0 2.0
a 3 56 0.0 91.0 85.0
a 3 23 0.0 99.0 79.0
a 3 46 0.0 59.0 10.0
a 3 8 0.0 63.0 43.0
a 3 78 0.0 112.0 57.0
a 3 43 0.0 74.0 30.0
a 3 49 0.0 56.0 87.0
a 3 83 0.0 112.0 66.0
a 3 50 0.0 101.0 49.0
a 4 21 0.0 237.0 30.0
a 4 22 0.0 107.0 23.0
a 4 70 0.0 71.0 62.0
a 4 55 0.0 123.0 15.0
a 4 47 0.0 138.0 32.0
a 4 23 0.0 76.0 28.0
a 4 3 0.0 88.0 31.0
a 4 37 0.0 82.0 15.0
a 4 56 0.0 72.0 65.0
a 5 28 0.0 237.0 31.0
a 5 40 0.0 51.0 29.0
a 5 12 0.0 73.0 35.0
a 5 75 0.0 88.0 5.0
a 5 34 0.0 93.0 15.0
a 5 32 0.0 88.0 38.0
a 5 16 0.0 92.0 50.0
a 7 71 0.0 237.0 47.0
a 7 47 0.0 90.0 21.0
a 7 64 0.0 96.0 35.0
a 7 65 0.0 69.0 66.0
a 7 84 0.0 49.0 50.0
a 7 66 0.0 46.0 2.0
a 7 57 0.0 122.0 28.0
a 7 88 0.0 79.0 80.0
a 7 70 0.0 117.0 74.0
a 7 36 0.0 57.0 51.0
a 8 49 0.0 237.0 83.0
a 8 24 0.0 146.0 41.0
a 8 6 0.0 54.0 76.0
a 8 70 0.0 147.0 3.0
a 8 31 0.0 76.0 33.0
a 8 77 0.0 74.0 88.0
a 8 19 0.0 75.0 67.0
a 8 85 0.0 86.0 10.0
a 8 7 0.0 94.0 49.0
a 8 20 0.0 69.0 21.0
a 8 67 0.0 63.0 8.0
a 8 36 0.0 75.0 25.0
a 8 30 0.0 85.0 70.0
a 8 57 0.0 66.0 35.0
a 9 74 0.0 237.0 68.0
a 9 84 0.0 65.0 60.0
a 9 83 0.0 134.0 54.0
a 9 39 0.0 82.0 5.0
a 9 21 0.0 81.0 23.0
a 9 85 0.0 69.0 60.0
a 9 7 0.0 96.0 16.0
a 9 78 0.0 141.0 39.0
a 9 11 0.0 98.0 79.0
a 9 19 0.0 145.0 57.0
a 9 68 0.0 135.0 52.0
a 9 4 0.0 100.0 54.0
a 9 23 0.0 46.0 46.0
a 9 37 0.0 130.0 72.0
a 9 12 0.0 116.0 86.0
a 14 64 0.0 237.0 49.0
a 14 45 0.0 81.0 33.0
a 14 10 0.0 94.0 7.0
a 14 27 0.0 87.0 82.0
a 14 44 0.0 125.0 41.0
a 14 7 0.0 48.0 58.0
a 14 43 0.0 97.0 12.0
a 14 77 0.0 63.0 70.0
a 18 79 0.0 237.0 86.0
a 18 13 0.0 112.0 13.0
a 18 17 0.0 131.0 58.0
a 18 83 0.0 123.0 43.0
a 18 60 0.0 143.0 77.0
a 18 56 0.0 57.0 9.0
a 18 68 0.0 70.0 9.0
a 18 22 0.0 64.0 70.0
a 18 36 0.0 122.0 55.0
a 18 70 0.0 103.0 66.0
a 18 19 0.0 56.0 23.0
a 18 12 0.0 130.0 28.0
a 18 34 0.0 69.0 11.0
a 18 20 0.0 125.0 14.0
a 18 21 0.0 114.0 70.0
a 18 54 0.0 115.0 35.0
a 18 41 0.0 99.0 58.0
a 18 24 0.0 65.0 77.0
a 20 43 0.0 237.0 75.0
a 20 13 0.0 64.0 3.0
a 20 80 0.0 110.0 44.0
a 20 72 0.0 113.0 88.0
a 20 57 0.0 79.0 21.0
a 20 63 0.0 53.0 3.0
a 20 11 0.0 49.0 52.0
a 21 3 0.0 237.0 84.0
a 21 50 0.0 82.0 26.0
a 21 38 0.0 120.0 83.0
a 21 35 0.0 75.0 44.0
a 21 36 0.0 67.0 55.0
a 21 74 0.0 89.0 81.0
a 21 83 0.0 121.0 62.0
a 26 5 0.0 237.0 49.0
a 26 86 0.0 137.0 17.0
a 26 81 0.0 127.0 74.0
a 26 23 0.0 125.0 43.0
a 26 43 0.0 79.0 43.0
a 26 17 0.0 51.0 79.0
a 26 52 0.0 124.0 10.0
a 26 28 0.0 47.0 44.0
a 26 24 0.0 104.0 7.0
a 26 89 0.0 132.0 48.0
a 26 34 0.0 119.0 74.0
a 26 31 0.0 73.0 69.0
a 26 22 0.0 99.0 44.0
a 28 59 0.0 237.0 54.0
a 28 87 0.0 116.0 53.0
a 28 7 0.0 137.0 56.0
a 28 62 0.0 110.0 49.0
a 28 4 0.0 103.0 60.0
a 28 85 0.0 101.0 7.0
a 28 53 0.0 74.0 64.0
a 28 44 0.0 79.0 59.0
a 28 48 0.0 64.0 5.0
a 28 55 0.0 134.0 37.0
a 28 79 0.0 149.0 86.0
a 28 29 0.0 76.0 33.0
a 28 34 0.0 116.0 33.0
a 28 77 0.0 133.0 67.0
a 28 24 0.0 73.0 45.0
a 29 30 0.0 237.0 11.0
a 29 14 0.0 104.0 88.0
a 29 73 0.0 46.0 26.0
a 29 47 0.0 70.0 5.0
a 29 49 0.0 60.0 70.0
a 29 84 0.0 92.0 10.0
a 29 6 0.0 70.0 80.0
a 29 23 0.0 117.0 64.0
a 29 66 0.0 141.0 3.0
a 29 64 0.0 136.0 28.0
a 29 48 0.0 122.0 84.0
a 29 59 0.0 66.0 25.0
a 29 65 0.0 116.0 79.0
a 29 45 0.0 60.0 25.0
a 29 60 0.0 63.0 6.0
a 29 69 0.0 51.0 86.0
a 29 51 0.0 69.0 60.0
a 29 70 0.0 52.0 63.0
a 29 81 0.0 72.0 41.0
a 29 16 0.0 87.0 78.0
a 29 36 0.0 57.0 66.0
a 29 8 0.0 97.0 41.0
a 29 20 0.0 71.0 30.0
a 30 48 0.0 237.0 40.0
a 30 75 0.0 53.0 23.0
a 30 89 0.0 110.0 78.0
a 30 81 0.0 75.0 36.0
a 30 21 0.0 122.0 85.0
a 30 72 0.0 53.0 73.0
a 30 52 0.0 139.0 83.0
a 30 39 0.0 71.0 77.0
a 30 38 0.0 94.0 53.0
a 30 28 0.0 72.0 30.0
a 30 47 0.0 130.0 13.0
a 30 59 0.0 75.0 33.0
a 30 23 0.0 105.0 44.0
a 30 34 0.0 134.0 31.0
a 30 57 0.0 88.0 2.0
a 31 89 0.0 237.0 40.0
a 31 87 0.0 237.0 4.0
a 31 88 0.0 95.0 1.0
a 31 23 0.0 78.0 27.0
a 31 16 0.0 76.0 30.0
a 31 78 0.0 96.0 51.0
a 31 30 0.0 138.0 58.0
a 31 83 0.0 103.0 12.0
a 31 52 0.0 73.0 26.0
a 31 47 0.0 112.0 24.0
a 31 6 0.0 89.0 62.0
a 31 17 0.0 117.0 83.0
a 31 12 0.0 70.0 21.0
a 31 85 0.0 96.0 70.0
a 31 8 0.0 138.0 29.0
a 31 67 0.0 128.0 86.0
a 31 33 0.0 137.0 11.0
a 31 7 0.0 62.0 18.0
a 31 53 0.0 66.0 75.0
a 31 32 0.0 71.0 32.0
a 31 70 0.0 145.0 19.0
a 31 82 0.0 54.0 36.0
a 33 8 0.0 237.0 86.0
a 33 18 0.0 136.0 48.0
a 33 77 0.0 102.0 12.0
a 33 59 0.0 113.0 42.0
a 33 45 0.0 113.0 35.0
a 33 88 0.0 140.0 34.0
a 33 26 0.0 138.0 55.0
a 33 69 0.0 91.0 72.0
a 34 81 0.0 237.0 63.0
a 34 22 0.0 94.0 39.0
a 34 21 0.0 67.0 62.0
a 34 86 0.0 124.0 32.0
a 34 42 0.0 95.0 62.0
a 34 44 0.0 120.0 56.0
a 34 59 0.0 82.0 44.0
a 34 8 0.0 55.0 45.0
a 34 25 0.0 55.0 87.0
a 34 17 0.0 135.0 65.0
a 34 80 0.0 106.0 80.0
a 34 40 0.0 105.0 24.0
a 34 85 0.0 63.0 71.0
a 35 4 0.0 237.0 15.0
a 35 48 0.0 75.0 56.0
a 35 56 0.0 95.0 53.0
a 35 30 0.0 102.0 25.0
a 35 17 0.0 58.0 17.0
a 35 88 0.0 86.0 3.0
a 35 13 0.0 71.0 19.0
a 35 31 0.0 70.0 40.0
a 35 44 0.0 84.0 70.0
a 36 78 0.0 237.0 64.0
a 36 85 0.0 237.0 61.0
a 36 35 0.0 98.0 10.0
a 36 8 0.0 102.0 11.0
a 36 46 0.0 94.0 8.0
a 36 58 0.0 64.0 19.0
a 36 20 0.0 139.0 30.0
a 36 31 0.0 133.0 64.0
a 36 51 0.0 52.0 32.0
a 36 74 0.0 109.0 58.0
a 36 5 0.0 92.0 6.0
a 36 47 0.0 149.0 74.0
a 36 84 0.0 66.0 62.0
a 36 86 0.0 105.0 32.0
a 43 9 0.0 237.0 63.0
a 43 71 0.0 47.0 66.0
a 43 60 0.0 98.0 45.0
a 43 76 0.0 52.0 87.0
a 43 57 0.0 84.0 74.0
a 43 39 0.0 128.0 66.0
a 43 30 0.0 82.0 26.0
a 43 84 0.0 143.0 25.0
a 43 17 0.0 53.0 41.0
a 43 16 0.0 124.0 61.0
a 43 48 0.0 118.0 61.0
a 43 40 0.0 123.0 25.0
a 43 58 0.0 93.0 51.0
a 43 72 0.0 63.0 49.0
a 43 87 0.0 81.0 32.0
a 43 62 0.0 78.0 77.0
a 43 15 0.0 112.0 22.0
a 43 33 0.0 75.0 61.0
a 43 4 0.0 85.0 78.0
a 44 68 0.0 237.0 59.0
a 44 57 0.0 64.0 64.0
a 44 42 0.0 76.0 68.0
a 44 37 0.0 133.0 70.0
a 44 23 0.0 135.0 74.0
a 44 77 0.0 55.0 42.0
a 44 81 0.0 132.0 5.0
a 44 66 0.0 120.0 19.0
a 44 41 0.0 135.0 37.0
a 44 50 0.0 94.0 79.0
a 44 61 0.0 99.0 13.0
a 44 72 0.0 68.0 44.0
a 44 52 0.0 111.0 22.0
a 48 26 0.0 237.0 4.0
a 48 53 0.0 111.0 13.0
a 48 55 0.0 46.0 7.0
a 48 88 0.0 87.0 71.0
a 48 46 0.0 102.0 81.0
a 48 8 0.0 116.0 8.0
a 48 74 0.0 108.0 28.0
a 48 84 0.0 111.0 11.0
a 48 22 0.0 65.0 28.0
a 48 63 0.0 60.0 32.0
a 48 83 0.0 114.0 69.0
a 48 31 0.0 112.0 32.0
a 48 49 0.0 69.0 85.0
a 48 52 0.0 46.0 81.0
a 48 68 0.0 66.0 54.0
a 48 47 0.0 129.0 80.0
a 48 11 0.0 79.0 84.0
a 48 34 0.0 145.0 14.0
a 48 35 0.0 100.0 50.0
a 49 56 0.0 237.0 32.0
a 49 13 0.0 73.0 55.0
a 49 65 0.0 91.0 30.0
a 49 7 0.0 119.0 39.0
a 49 36 0.0 63.0 72.0
a 49 67 0.0 107.0 14.0
a 49 80 0.0 134.0 80.0
a 49 85 0.0 102.0 80.0
a 49 31 0.0 100.0 70.0
a 49 71 0.0 129.0 16.0
a 49 55 0.0 91.0 54.0
a 50 14 0.0 237.0 56.0
a 50 87 0.0 61.0 19.0
a 50 22 0.0 133.0 45.0
a 50 26 0.0 141.0 60.0
a 50 45 0.0 135.0 9.0
a 50 23 0.0 57.0 8.0
a 50 7 0.0 64.0 9.0
a 50 84 0.0 50.0 2.0
a 50 6 0.0 109.0 46.0
a 50 47 0.0 87.0 35.0
a 50 43 0.0 121.0 81.0
a 50 54 0.0 149.0 12.0
a 50 71 0.0 130.0 47.0
a 50 28 0.0 133.0 35.0
a 50 74 0.0 75.0 77.0
a 50 59 0.0 70.0 36.0
a 50 10 0.0 95.0 79.0
a 51 7 0.0 237.0 10.0
a 51 45 0.0 136.0 49.0
a 51 79 0.0 136.0 30.0
a 51 72 0.0 142.0 23.0
a 51 71 0.0 139.0 56.0
a 51 74 0.0 130.0 70.0
a 51 20 0.0 61.0 22.0
a 51 46 0.0 65.0 47.0
a 51 4 0.0 129.0 58.0
a 51 65 0.0 110.0 23.0
a 56 88 0.0 237.0 33.0
a 56 61 0.0 237.0 32.0
a 56 79 0.0 100.0 3.0
a 56 20 0.0 75.0 1.0
a 56 89 0.0 103.0 48.0
a 56 8 0.0 129.0 76.0
a 56 22 0.0 61.0 23.0
a 59 44 0.0 237.0 56.0
a 59 34 0.0 138.0 39.0
a 59 74 0.0 85.0 59.0
a 59 63 0.0 58.0 39.0
a 59 77 0.0 127.0 8.0
a 59 16 0.0 92.0 37.0
a 59 42 0.0 96.0 76.0
a 59 6 0.0 109.0 86.0
a 59 32 0.0 81.0 79.0
a 59 43 0.0 111.0 40.0
a 59 4 0.0 98.0 70.0
a 59 60 0.0 91.0 73.0
a 59 56 0.0 91.0 7.0
a 59 3 0.0 149.0 27.0
a 59 35 0.0 140.0 70.0
a 59 85 0.0 76.0 3.0
a 59 11 0.0 85.0 58.0
a 60 86 0.0 237.0 32.0
a 60 36 0.0 237.0 70.0
a 60 83 0.0 95.0 83.0
a 60 8 0.0 139.0 17.0
a 60 53 0.0 94.0 82.0
a 60 70 0.0 57.0 33.0
a 60 79 0.0 92.0 55.0
a 60 84 0.0 67.0 18.0
a 60 6 0.0 146.0 53.0
a 60 89 0.0 145.0 55.0
a 60 47 0.0 119.0 8.0
a 60 57 0.0 104.0 16.0
a 60 54 0.0 68.0 29.0
a 60 32 0.0 111.0 2.0
a 60 20 0.0 102.0 44.0
a 60 82 0.0 69.0 34.0
a 60 27 0.0 55.0 52.0
a 60 42 0.0 53.0 55.0
a 61 62 0.0 237.0 79.0
a 61 43 0.0 93.0 82.0
a 61 52 0.0 145.0 86.0
a 61 15 0.0 90.0 74.0
a 61 51 0.0 144.0 66.0
a 61 4 0.0 57.0 22.0
a 61 87 0.0 95.0 46.0
a 61 75 0.0 85.0 1.0
a 61 55 0.0 94.0 66.0
a 61 26 0.0 147.0 10.0
a 61 37 0.0 144.0 5.0
a 61 18 0.0 104.0 29.0
a 62 29 0.0 237.0 13.0
a 62 48 0.0 111.0 30.0
a 62 78 0.0 102.0 66.0
a 62 68 0.0 90.0 7.0
a 62 81 0.0 115.0 28.0
a 62 64 0.0 104.0 77.0
a 62 7 0.0 85.0 80.0
a 62 54 0.0 115.0 63.0
a 62 76 0.0 79.0 51.0
a 62 89 0.0 53.0 26.0
a 62 60 0.0 61.0 74.0
a 62 12 0.0 128.0 34.0
a 64 72 0.0 237.0 28.0
a 64 24 0.0 66.0 71.0
a 64 6 0.0 112.0 82.0
a 64 17 0.0 139.0 2.0
a 64 14 0.0 64.0 41.0
a 64 87 0.0 115.0 31.0
a 64 21 0.0 61.0 65.0
a 64 68 0.0 112.0 57.0
a 64 61 0.0 51.0 21.0
a 64 80 0.0 58.0 32.0
a 64 23 0.0 63.0 5.0
a 64 26 0.0 46.0 76.0
a 64 5 0.0 138.0 74.0
a 64 43 0.0 127.0 24.0
a 64 13 0.0 141.0 74.0
a 68 50 0.0 237.0 3.0
a 68 40 0.0 96.0 50.0
a 68 36 0.0 79.0 54.0
a 68 10 0.0 85.0 75.0
a 68 73 0.0 115.0 62.0
a 68 25 0.0 72.0 8.0
a 71 18 0.0 237.0 15.0
a 71 42 0.0 95.0 33.0
a 71 19 0.0 113.0 81.0
a 71 49 0.0 134.0 21.0
a 71 79 0.0 123.0 25.0
a 71 72 0.0 116.0 49.0
a 71 30 0.0 107.0 40.0
a 71 33 0.0 138.0 29.0
a 71 48 0.0 69.0 52.0
a 71 77 0.0 98.0 56.0
a 71 83 0.0 114.0 15.0
a 71 78 0.0 93.0 63.0
a 72 31 0.0 237.0 16.0
a 72 68 0.0 109.0 2.0
a 72 47 0.0 50.0 25.0
a 74 35 0.0 237.0 2.0
a 74 70 0.0 126.0 75.0
a 74 66 0.0 70.0 58.0
a 74 28 0.0 137.0 9.0
a 74 76 0.0 129.0 18.0
a 74 55 0.0 53.0 65.0
a 74 71 0.0 58.0 28.0
a 74 3 0.0 94.0 57.0
a 74 40 0.0 144.0 61.0
a 74 48 0.0 116.0 57.0
a 78 51 0.0 237.0 50.0
a 78 59 0.0 66.0 64.0
a 78 23 0.0 121.0 8.0
a 78 5 0.0 90.0 70.0
a 79 20 0.0 237.0 33.0
a 79 18 0.0 122.0 13.0
a 79 64 0.0 130.0 48.0
a 79 76 0.0 49.0 51.0
a 81 82 0.0 237.0 14.0
a 81 49 0.0 74.0 13.0
a 81 59 0.0 98.0 59.0
a 81 75 0.0 72.0 63.0
a 81 50 0.0 135.0 35.0
a 81 61 0.0 51.0 40.0
a 81 67 0.0 104.0 52.0
a 81 71 0.0 82.0 3.0
a 81 42 0.0 133.0 2.0
a 81 74 0.0 142.0 12.0
a 81 48 0.0 81.0 18.0
a 81 3 0.0 113.0 24.0
a 81 87 0.0 51.0 40.0
a 81 24 0.0 65.0 79.0
a 81 16 0.0 148.0 42.0
a 82 60 0.0 237.0 7.0
a 82 74 0.0 120.0 15.0
a 82 8 0.0 149.0 70.0
a 82 4 0.0 93.0 30.0
a 82 47 0.0 147.0 19.0
a 82 62 0.0 78.0 40.0
a 82 89 0.0 104.0 1.0
a 82 71 0.0 85.0 53.0
